\ LP format - for model browsing. Use MPS format to capture full model detail.
Minimize
  0.4 C0 + 0.4 C1 + 0.1 C2 + 0.1 C3 + C4 + C5 + C6 + 2 C9 + C10 + 2 C11
Subject To
 R0: C0 + 2 C4 >= 1
 R1: C1 + 3 C4 >= 2
 R2: C2 + 4 C4 >= 3
 R3: C3 + 5 C4 >= 4
 R4: C0 + 2 C5 >= 1
 R5: C1 + 3 C5 >= 2
 R6: C2 + 4 C5 >= 3
 R7: C3 + 5 C5 >= 4
 R8: C0 + 2 C6 >= 1
 R9: C1 + 3 C6 >= 2
 R10: C2 + 4 C6 >= 3
 R11: C3 + 5 C6 >= 4
 R12: C0 + 2 C7 >= 1
 R13: C1 + 3 C7 >= 2
 R14: C2 + 4 C7 >= 3
 R15: C3 + 5 C7 >= 4
 R16: C0 + 2 C8 >= 1
 R17: C1 + 3 C8 >= 2
 R18: C2 + 4 C8 >= 3
 R19: C3 + 5 C8 >= 4
 R20: C0 + 2 C9 >= 1
 R21: C1 + 3 C9 >= 2
 R22: C2 + 4 C9 >= 3
 R23: C3 + 5 C9 >= 4
 R24: C0 + 2 C10 >= 1
 R25: C1 + 3 C10 >= 2
 R26: C2 + 4 C10 >= 3
 R27: C3 + 5 C10 >= 4
 R28: C0 + 2 C11 >= 1
 R29: C1 + 3 C11 >= 2
 R30: C2 + 4 C11 >= 3
 R31: C3 + 5 C11 >= 4
Bounds
End
